unsat
(define-fun f ((x0 (BitVec 64)) (x1 (BitVec 64))) (BitVec 64) (bvadd #b0000000000000000000000000000000000000000000000000000000000000001 (bvudiv x0 #b0000000000000000000000000000000000000000000000000000000000000100)))
(define-fun f ((x0 (BitVec 64)) (x1 (BitVec 64))) (BitVec 64) (bvadd #b0000000000000000000000000000000000000000000000000000000000000001 (bvudiv x0 #b0000000000000000000000000000000000000000000000000000000000000100)))
int-arith43.sl running time : 0 m 25.803981642 s
times : 25.803981642
